scripts/logs/SAT-i7-free/bwp_6_2_1.SAT.log.out
Sun 3 Jun 20:42:05 CEST 2018
    [1;34mTry max length:[0m 999999
    [1;34m    At iteration:[0m 0
        lingeling found a solution in .010 ms

      | W
    L | 0 1 2 3 4 5 
    ----------------
    0 | 1 . . . . . 
    1 | . . . . . 2 
    
    Boxes' corners:      (w,l)
        Box 1 is at 
            top left     (0,0)
            bottom right (0,0)
    
        Box 2 is at 
            top left     (5,1)
            bottom right (5,1)
    
        Roll length used: 2

    [1;34mTry max length:[0m 1
    [1;34m    At iteration:[0m 1
        lingeling found a solution in .008 ms

      | W
    L | 0 1 2 3 4 5 
    ----------------
    0 | 2 . 1 . . . 
    
    Boxes' corners:      (w,l)
        Box 1 is at 
            top left     (2,0)
            bottom right (2,0)
    
        Box 2 is at 
            top left     (0,0)
            bottom right (0,0)
    
        Roll length used: 1

    [1;34mTry max length:[0m 0
    [1;34m    At iteration:[0m 2
        [3;31mlingeling determined unsatisfiability of the Boolean formula[0m
        [1;32mOptimality reached![0m
